(set-info :smt-lib-version 2.6)
(set-logic UF)
(set-info :source |Benchmarks from the paper: "Extending Sledgehammer with SMT Solvers" by Jasmin Blanchette, Sascha Bohme, and Lawrence C. Paulson, CADE 2011.  Translated to SMT2 by Andrew Reynolds and Morgan Deters.|)
(set-info :category "industrial")
(set-info :status unknown)
(declare-sort S1 0)
(declare-sort S2 0)
(declare-sort S3 0)
(declare-sort S4 0)
(declare-sort S5 0)
(declare-sort S6 0)
(declare-sort S7 0)
(declare-sort S8 0)
(declare-sort S9 0)
(declare-sort S10 0)
(declare-sort S11 0)
(declare-sort S12 0)
(declare-sort S13 0)
(declare-sort S14 0)
(declare-sort S15 0)
(declare-sort S16 0)
(declare-sort S17 0)
(declare-sort S18 0)
(declare-sort S19 0)
(declare-sort S20 0)
(declare-sort S21 0)
(declare-fun f1 () S1)
(declare-fun f2 () S1)
(declare-fun f3 (S3 S4 S5 S6 S2) S1)
(declare-fun f4 () S3)
(declare-fun f5 () S4)
(declare-fun f6 () S5)
(declare-fun f7 (S7 S6) S6)
(declare-fun f8 (S8 S6) S7)
(declare-fun f9 (S9 S6) S8)
(declare-fun f10 () S9)
(declare-fun f11 () S6)
(declare-fun f12 () S6)
(declare-fun f13 () S6)
(declare-fun f14 (S3 S2 S2) S1)
(declare-fun f15 () S2)
(declare-fun f16 (S10 S11) S1)
(declare-fun f17 (S12 S13) S10)
(declare-fun f18 (S14 S13) S12)
(declare-fun f19 () S14)
(declare-fun f20 (S15 S16) S13)
(declare-fun f21 (S17 S6) S15)
(declare-fun f22 () S17)
(declare-fun f23 () S6)
(declare-fun f24 (S18 S19) S16)
(declare-fun f25 (S20 S4) S18)
(declare-fun f26 () S20)
(declare-fun f27 () S4)
(declare-fun f28 () S19)
(declare-fun f29 () S19)
(declare-fun f30 (S3) S11)
(declare-fun f31 (S3 S5 S16) S1)
(declare-fun f32 (S21 S3) S1)
(declare-fun f33 () S21)
(declare-fun f34 () S2)
(declare-fun f35 (S3 S5 S6 S2) S1)
(declare-fun f36 (S3 S4 S5 S6 S2) S1)
(declare-fun f37 (S4 S4) S1)
(declare-fun f38 (S3 S4) S1)
(declare-fun f39 (S3 S4 S19 S5) S1)
(declare-fun f40 (S16) S4)
(declare-fun f41 (S11 S10) S1)
(assert (not (= f1 f2)))
(assert (not (exists ((?v0 S2)) (and (= (f3 f4 f5 f6 (f7 (f8 (f9 f10 f11) f12) f13) ?v0) f1) (= (f14 f4 ?v0 f15) f1)))))
(assert (= (f16 (f17 (f18 f19 (f20 (f21 f22 f23) (f24 (f25 f26 f27) f28))) (f20 (f21 f22 f11) (f24 (f25 f26 f5) f29))) (f30 f4)) f1))
(assert (forall ((?v0 S5) (?v1 S2)) (=> (= (f31 f4 ?v0 (f24 (f25 f26 f27) f28)) f1) (=> (= (f3 f4 f27 ?v0 f23 ?v1) f1) (exists ((?v2 S2)) (and (= (f3 f4 f5 ?v0 f11 ?v2) f1) (= (f14 f4 ?v2 ?v1) f1)))))))
(assert (= (f31 f4 f6 (f24 (f25 f26 f27) f28)) f1))
(assert (= (f3 f4 f27 f6 (f7 (f8 (f9 f10 f23) f12) f13) f15) f1))
(assert (= (f31 f4 f6 (f24 (f25 f26 f27) f28)) f1))
(assert (= (f3 f4 f27 f6 (f7 (f8 (f9 f10 f23) f12) f13) f15) f1))
(assert (forall ((?v0 S5) (?v1 S2)) (=> (= (f31 f4 ?v0 (f24 (f25 f26 f27) f28)) f1) (=> (= (f3 f4 f27 ?v0 f23 ?v1) f1) (exists ((?v2 S2)) (and (= (f3 f4 f5 ?v0 f11 ?v2) f1) (= (f14 f4 ?v2 ?v1) f1)))))))
(assert (= (f16 (f17 (f18 f19 (f20 (f21 f22 f23) (f24 (f25 f26 f27) f28))) (f20 (f21 f22 f11) (f24 (f25 f26 f5) f29))) (f30 f4)) f1))
(assert (forall ((?v0 S3) (?v1 S2)) (= (f14 ?v0 ?v1 ?v1) f1)))
(assert (= (f32 f33 f4) f1))
(assert (forall ((?v0 S6) (?v1 S6) (?v2 S6) (?v3 S6) (?v4 S6) (?v5 S6)) (= (= (f7 (f8 (f9 f10 ?v0) ?v1) ?v2) (f7 (f8 (f9 f10 ?v3) ?v4) ?v5)) (and (= ?v0 ?v3) (and (= ?v1 ?v4) (= ?v2 ?v5))))))
(assert (forall ((?v0 S3) (?v1 S2) (?v2 S2) (?v3 S2)) (=> (= (f14 ?v0 ?v1 ?v2) f1) (=> (= (f14 ?v0 ?v2 ?v3) f1) (= (f14 ?v0 ?v1 ?v3) f1)))))
(assert (forall ((?v0 S3) (?v1 S4) (?v2 S5) (?v3 S6) (?v4 S6) (?v5 S2) (?v6 S6) (?v7 S2) (?v8 S2)) (let ((?v_0 (= (f14 ?v0 ?v5 ?v7) f1)) (?v_1 (= (f14 ?v0 ?v7 ?v5) f1))) (=> (= (f3 ?v0 ?v1 ?v2 ?v3 f34) f1) (=> (= (f3 ?v0 ?v1 ?v2 ?v4 ?v5) f1) (=> (= (f3 ?v0 ?v1 ?v2 ?v6 ?v7) f1) (=> (or ?v_0 ?v_1) (=> (=> ?v_0 (= ?v8 ?v7)) (=> (=> ?v_1 (= ?v8 ?v5)) (= (f3 ?v0 ?v1 ?v2 (f7 (f8 (f9 f10 ?v3) ?v4) ?v6) ?v8) f1))))))))))
(assert (forall ((?v0 S3) (?v1 S4) (?v2 S5) (?v3 S6) (?v4 S6) (?v5 S6) (?v6 S2)) (=> (= (f3 ?v0 ?v1 ?v2 (f7 (f8 (f9 f10 ?v3) ?v4) ?v5) ?v6) f1) (=> (forall ((?v7 S2) (?v8 S2)) (let ((?v_0 (= (f14 ?v0 ?v7 ?v8) f1)) (?v_1 (= (f14 ?v0 ?v8 ?v7) f1))) (=> (= (f3 ?v0 ?v1 ?v2 ?v3 f34) f1) (=> (= (f3 ?v0 ?v1 ?v2 ?v4 ?v7) f1) (=> (= (f3 ?v0 ?v1 ?v2 ?v5 ?v8) f1) (=> (or ?v_0 ?v_1) (=> (=> ?v_0 (= ?v6 ?v8)) (=> (=> ?v_1 (= ?v6 ?v7)) false)))))))) false))))
(assert (forall ((?v0 S3) (?v1 S5) (?v2 S6) (?v3 S6) (?v4 S2) (?v5 S6) (?v6 S2) (?v7 S2)) (let ((?v_0 (= (f14 ?v0 ?v4 ?v6) f1)) (?v_1 (= (f14 ?v0 ?v6 ?v4) f1))) (=> (= (f35 ?v0 ?v1 ?v2 f34) f1) (=> (= (f35 ?v0 ?v1 ?v3 ?v4) f1) (=> (= (f35 ?v0 ?v1 ?v5 ?v6) f1) (=> (or ?v_0 ?v_1) (=> (=> ?v_0 (= ?v7 ?v6)) (=> (=> ?v_1 (= ?v7 ?v4)) (= (f35 ?v0 ?v1 (f7 (f8 (f9 f10 ?v2) ?v3) ?v5) ?v7) f1))))))))))
(assert (forall ((?v0 S6) (?v1 S16) (?v2 S6) (?v3 S16) (?v4 S3) (?v5 S6) (?v6 S6)) (let ((?v_0 (f30 ?v4))) (=> (= (f16 (f17 (f18 f19 (f20 (f21 f22 ?v0) ?v1)) (f20 (f21 f22 ?v2) ?v3)) ?v_0) f1) (= (f16 (f17 (f18 f19 (f20 (f21 f22 (f7 (f8 (f9 f10 ?v0) ?v5) ?v6)) ?v1)) (f20 (f21 f22 (f7 (f8 (f9 f10 ?v2) ?v5) ?v6)) ?v3)) ?v_0) f1)))))
(assert (forall ((?v0 S3) (?v1 S4) (?v2 S5) (?v3 S6) (?v4 S6) (?v5 S2) (?v6 S6) (?v7 S2) (?v8 S2)) (let ((?v_0 (= (f14 ?v0 ?v5 ?v7) f1)) (?v_1 (= (f14 ?v0 ?v7 ?v5) f1))) (=> (= (f36 ?v0 ?v1 ?v2 ?v3 f34) f1) (=> (= (f36 ?v0 ?v1 ?v2 ?v4 ?v5) f1) (=> (= (f36 ?v0 ?v1 ?v2 ?v6 ?v7) f1) (=> (or ?v_0 ?v_1) (=> (=> ?v_0 (= ?v8 ?v7)) (=> (=> ?v_1 (= ?v8 ?v5)) (= (f36 ?v0 ?v1 ?v2 (f7 (f8 (f9 f10 ?v3) ?v4) ?v6) ?v8) f1))))))))))
(assert (forall ((?v0 S3) (?v1 S5) (?v2 S6) (?v3 S6) (?v4 S6) (?v5 S2)) (=> (= (f35 ?v0 ?v1 (f7 (f8 (f9 f10 ?v2) ?v3) ?v4) ?v5) f1) (=> (forall ((?v6 S2) (?v7 S2)) (let ((?v_0 (= (f14 ?v0 ?v6 ?v7) f1)) (?v_1 (= (f14 ?v0 ?v7 ?v6) f1))) (=> (= (f35 ?v0 ?v1 ?v2 f34) f1) (=> (= (f35 ?v0 ?v1 ?v3 ?v6) f1) (=> (= (f35 ?v0 ?v1 ?v4 ?v7) f1) (=> (or ?v_0 ?v_1) (=> (=> ?v_0 (= ?v5 ?v7)) (=> (=> ?v_1 (= ?v5 ?v6)) false)))))))) false))))
(assert (forall ((?v0 S3) (?v1 S4) (?v2 S5) (?v3 S6) (?v4 S2) (?v5 S4)) (=> (= (f3 ?v0 ?v1 ?v2 ?v3 ?v4) f1) (=> (= (f37 ?v1 ?v5) f1) (= (f3 ?v0 ?v5 ?v2 ?v3 ?v4) f1)))))
(assert (forall ((?v0 S6) (?v1 S4) (?v2 S19) (?v3 S6) (?v4 S4) (?v5 S19) (?v6 S3)) (=> (= (f16 (f17 (f18 f19 (f20 (f21 f22 ?v0) (f24 (f25 f26 ?v1) ?v2))) (f20 (f21 f22 ?v3) (f24 (f25 f26 ?v4) ?v5))) (f30 ?v6)) f1) (= (f37 ?v1 ?v4) f1))))
(assert (forall ((?v0 S3) (?v1 S5) (?v2 S6) (?v3 S2) (?v4 S4)) (=> (= (f35 ?v0 ?v1 ?v2 ?v3) f1) (= (f3 ?v0 ?v4 ?v1 ?v2 ?v3) f1))))
(assert (forall ((?v0 S3) (?v1 S4) (?v2 S5) (?v3 S6) (?v4 S2)) (=> (= (f3 ?v0 ?v1 ?v2 ?v3 ?v4) f1) (= (f36 ?v0 ?v1 ?v2 ?v3 ?v4) f1))))
(assert (forall ((?v0 S3) (?v1 S4) (?v2 S5) (?v3 S6) (?v4 S2)) (=> (= (f36 ?v0 ?v1 ?v2 ?v3 ?v4) f1) (= (f3 ?v0 ?v1 ?v2 ?v3 ?v4) f1))))
(assert (forall ((?v0 S3) (?v1 S4) (?v2 S5) (?v3 S6) (?v4 S2)) (= (= (f36 ?v0 ?v1 ?v2 ?v3 ?v4) f1) (= (f3 ?v0 ?v1 ?v2 ?v3 ?v4) f1))))
(assert (forall ((?v0 S4)) (= (f37 ?v0 ?v0) f1)))
(assert (forall ((?v0 S6) (?v1 S4) (?v2 S19) (?v3 S6) (?v4 S4) (?v5 S19) (?v6 S3) (?v7 S5) (?v8 S2)) (=> (= (f16 (f17 (f18 f19 (f20 (f21 f22 ?v0) (f24 (f25 f26 ?v1) ?v2))) (f20 (f21 f22 ?v3) (f24 (f25 f26 ?v4) ?v5))) (f30 ?v6)) f1) (=> (= (f3 ?v6 ?v1 ?v7 ?v0 ?v8) f1) (=> (= (f38 ?v6 ?v1) f1) (= (f38 ?v6 ?v4) f1))))))
(assert (forall ((?v0 S6) (?v1 S4) (?v2 S19) (?v3 S6) (?v4 S4) (?v5 S19) (?v6 S3) (?v7 S5) (?v8 S2)) (=> (= (f16 (f17 (f18 f19 (f20 (f21 f22 ?v0) (f24 (f25 f26 ?v1) ?v2))) (f20 (f21 f22 ?v3) (f24 (f25 f26 ?v4) ?v5))) (f30 ?v6)) f1) (=> (= (f3 ?v6 ?v1 ?v7 ?v0 ?v8) f1) (=> (= (f39 ?v6 ?v1 ?v2 ?v7) f1) (= (f39 ?v6 ?v4 ?v5 ?v7) f1))))))
(assert (forall ((?v0 S6) (?v1 S16) (?v2 S6) (?v3 S16) (?v4 S3) (?v5 S5) (?v6 S2)) (=> (= (f16 (f17 (f18 f19 (f20 (f21 f22 ?v0) ?v1)) (f20 (f21 f22 ?v2) ?v3)) (f30 ?v4)) f1) (=> (= (f3 ?v4 (f40 ?v1) ?v5 ?v0 ?v6) f1) (=> (= (f31 ?v4 ?v5 ?v1) f1) (= (f31 ?v4 ?v5 ?v3) f1))))))
(assert (forall ((?v0 S11) (?v1 S10)) (=> (forall ((?v2 S13) (?v3 S6) (?v4 S4) (?v5 S19)) (= (f41 ?v0 (f17 (f18 f19 ?v2) (f20 (f21 f22 ?v3) (f24 (f25 f26 ?v4) ?v5)))) f1)) (= (f41 ?v0 ?v1) f1))))
(assert (forall ((?v0 S10)) (=> (forall ((?v1 S13) (?v2 S6) (?v3 S4) (?v4 S19)) (=> (= ?v0 (f17 (f18 f19 ?v1) (f20 (f21 f22 ?v2) (f24 (f25 f26 ?v3) ?v4)))) false)) false)))
(assert (forall ((?v0 S4) (?v1 S19) (?v2 S4) (?v3 S19)) (=> (= (f24 (f25 f26 ?v0) ?v1) (f24 (f25 f26 ?v2) ?v3)) (=> (=> (= ?v0 ?v2) (=> (= ?v1 ?v3) false)) false))))
(assert (forall ((?v0 S6) (?v1 S16) (?v2 S6) (?v3 S16)) (=> (= (f20 (f21 f22 ?v0) ?v1) (f20 (f21 f22 ?v2) ?v3)) (=> (=> (= ?v0 ?v2) (=> (= ?v1 ?v3) false)) false))))
(assert (forall ((?v0 S13) (?v1 S13) (?v2 S13) (?v3 S13)) (=> (= (f17 (f18 f19 ?v0) ?v1) (f17 (f18 f19 ?v2) ?v3)) (=> (=> (= ?v0 ?v2) (=> (= ?v1 ?v3) false)) false))))
(check-sat)
(exit)
